experiment/data/hgs-res/Vrp-Set-Golden-n241/Vrp-Set-Golden-n241-hgs/1.hgs1.tour
Route #1: 108 109 70 164 223 222 184 217 162 157 102 97
Route #2: 38 98 47 48 49 10 104 163 103 44 43 42 37
Route #3: 158 218 227 228 229 190 224 130 169 168 167 107
Route #4: 5 65 125 185 225 165 105 45
Route #5: 50 110 170 230 231 232 191 237 131 172 171 52
Route #6: 11 117 176 235 236 177 71 112 111 51
Route #7: 6 66 126 166 115 106 55 46
Route #8: 56 57 116 175 226 186 233 178 119 118 173 113 58 53
Route #9: 17 12 77 72 180 239 238 179 120 60 59
Route #10: 135 234 195 196 197 192 240 132 137 136 76
Route #11: 54 114 15 16 75 174 121 61 1
Route #12: 73 78 133 138 193 181 198 199 140 67 85 84
Route #13: 14 74 23 24 25 7 80 139 79 20 19 18 13
Route #14: 134 194 203 204 205 187 200 127 145 144 143 83
Route #15: 21 81 141 201 182 122 62 2
Route #16: 28 147 148 128 213 188 208 207 206 146 86 26
Route #17: 8 93 152 211 212 153 68 88 87 27
Route #18: 22 31 82 91 142 123 63 3
Route #19: 32 33 92 151 202 183 209 154 95 94 149 89 34 29
Route #20: 35 36 96 155 214 215 156 69 101 9 41
Route #21: 100 160 161 129 216 189 221 220 219 210 159
Route #22: 30 90 39 40 99 150 124 64 4
Cost 707.756
